
 102   30
  10   10   10   10   10   10   10   10   10   10   10   10   10   10   10   10   10   10   10   10   10   10   10   10   10   10   10   10   10   10

   0   0   0   0   0   0   0   0   0   0   0   0   0   0   0   0   0   0   0   0   0   0   0   0   0   0   0   0   0   0   0  24 2 3 4 5 6 7 8 9 10 11 12 13 14 16 17 18 20 21 22 24 27 29 30 39 
   6   0   0   0   0   0   0   0   0   1   0   1   0   0   0   0   0   0   1   0   0   1   0   0   0   0   0   0   2   0   0  15 63 61 60 56 55 52 46 42 40 38 36 35 32 28 23 
   5   0   0   0   1   0   0   0   0   0   0   0   1   0   0   0   0   2   0   0   0   0   1   0   0   2   0   0   0   0   0  11 72 63 54 49 47 43 38 34 23 19 15 
   5   0   0   0   0   0   0   0   1   0   0   0   0   0   0   1   0   0   5   0   0   0   0   0   0   0   0   1   0   0   0  11 73 62 57 54 52 47 42 38 34 25 19 
   6   0   0   1   0   0   0   0   0   0   0   0   0   0   0   0   0   0   0   0   0   0   8   0   0   4   0   8   0   0   0   9 100 74 56 55 38 37 32 26 15 
   9   0   0   0   0   0   0   0   0   0   4   0   0   0   0   0   0   0   0   0   0   0   0   0   3   0   0   0   0   2   0  12 70 65 63 52 51 48 47 45 42 36 31 25 
   3   0   0   0   6   0   0   0   0   5   0   0   8   0   0   0   0   8   0   0   0   0   0   0   0   0   0   0   0   0   0  18 99 98 97 89 75 73 72 71 69 60 59 57 56 54 43 41 38 34 
   8   0   0   0   0   0   0   0   0   0   0   0   0   0   0   0   0   0   0   0   0   0   0   1   0   0   0   0   0   0   0  17 74 73 72 71 65 63 62 60 58 56 55 54 50 47 46 38 34 
   6   0   2   0   5   0   0   1   0   0   0   0   0   0   0   0   0   8   0   0   1   0   0   0   0   0   0   0   0   0   0  17 100 96 95 94 91 88 75 70 65 63 62 60 55 53 49 42 26 
   2   0   0   0   0   0   1   0   0   0   2   0   0   0   0   8   0   0   0   0   7   0   0   0   0   0   0   0   0   0   1  12 96 94 91 74 70 66 63 60 59 46 33 26 
   3   0   0   6   7   0   0   0   0   0   0   0   0   0   0   0   0   0   0   0   0   0   0   0   6   0   2   0   0   0   0  10 101 98 75 71 70 68 61 46 38 32 
   2   0   0   0   5   0   0   0   0   5   8   0   0   0   0   0   2   0   0   0   0   0   0   0   0   8   0   0   0   7   0  24 100 97 95 94 92 91 89 88 84 75 74 72 71 70 69 68 63 62 61 60 57 54 49 48 
   4   1   0   0   0   0   0   0   0   0   0   0   0   0   0   0   0   0  10   0   0   4   0   0   0   0   0   0   0   0   0  12 98 89 73 66 63 61 58 57 52 46 41 38 
   2   5   9   0   0   0   0   0   0   0   0   0   0   0   0   0   0   0   3   0   0   0   0   0   4   4   0   0   0  10   5   9 100 99 97 69 60 56 40 38 32 
  10   0   0   0   0   0   0   0   0   0   0   0   0   0   0   0   0   0   0   0   0   0   0   0   0   9   4   0   0   0   0  19 99 98 97 95 94 93 92 86 73 71 68 65 64 61 60 59 58 50 44 
   5   0   0   0   0   0   0   0   0   0   0   0   0   0   0   0   0   0   0   0   0   0   0   0   0   0   8   0   0   0   0  20 101 100 99 95 94 91 90 87 74 72 71 70 68 65 62 61 59 53 51 48 
   4   0   0   0   0   0   0   0   0   0   0   6   0   0   0   0   0   0   0   1   0   0   0   0   0   0  10   0   0   0   0  26 101 99 98 96 95 94 93 91 90 89 88 87 86 83 82 80 74 73 72 71 70 69 68 66 61 58 
   1   5   0   0   0   0   0   0   0   0   0   0   0   2   0   8   0   0   0   0   0   0   0   0   0   0   0   4   0   3   0  20 100 98 97 95 94 92 88 87 82 74 73 72 69 66 64 63 58 57 56 55 
   2   0   0   0   6   0   0   0   0   0   0   0   0   3   0   0   7   0   0   6   0   9   0   0   0   0   0   0   0   4   0  15 96 94 92 88 75 74 69 64 61 60 59 58 56 55 50 
   8   0   0   0   0   0   5   0   0   0   0   0   9   0   0   0   0   0   0   0   5   0   0   0   0   0   0   0   0   0   0  15 101 99 97 95 90 88 86 84 72 70 69 61 60 57 38 
  10   0   0   0   0   0   0   0   0   0   0   0   0   0   0   0   0   0   0   0   0   0   0   0   0   0   0   0   0   0   0  20 97 96 95 92 91 89 88 87 86 83 82 70 69 66 65 64 62 61 58 54 
   2   0   0   0   0   0   0   0   0   5   0   0   0   0   0   0   0   0   0   0   0   0   0   0   9   0   4   0   0   0   0  20 99 97 96 95 94 93 91 90 89 88 87 85 84 81 70 66 65 62 56 48 
   3   0   0   0   0   0   0   0   0   0   0   7   0   9   0   0   0   3   0   0   0   0   0   0   0   0   0   0   0  10   4  15 97 96 95 94 93 92 91 88 85 74 70 68 66 57 41 
   4   0   6   0   0   0   0   2   0   0   0   0   0   0   0   0   0   0   0   0   0   0   0   5   0   0   0   9   0  10   0  16 100 99 98 95 94 92 91 85 75 74 70 66 63 60 53 48 
   1   0   0   0   0   0   0   0   0   0   0   0   0   0   0   0   0   0   0   5   4   0   0   0   0   0   0   0   0   4   0  21 100 99 98 97 95 94 92 91 90 89 88 87 83 82 79 75 71 69 61 59 58 
   5   0   0   0   0   0   0   0   0   0   0   0   0   0   0   5   0   0   7   0   8   0   0   0   0   0   0   0   0   0   0  15 101 99 98 97 92 90 87 80 73 72 69 68 61 48 45 
   9   7   0   0   0   0   0   7   0   9   5   1   0   0   0   0   0   0   0   0   0   0   0   0   0   0   0   0   0   0   4  20 100 97 96 94 93 92 91 90 88 86 85 84 83 82 81 74 68 62 60 57 
   9   0   0   0   0   0   0   8   0   0   0   0   0   0   0   0   0   0   0   0   6   0   0   0   0   0   0   0   0   0   0  16 101 100 97 88 87 84 83 81 75 72 71 69 68 65 62 49 
   9   0  10   0   0   2   0   0   0   6   0   6   0   0   0   0   0   5   0   0   0   0   0   0   0   0   0   8   0   5   0  15 101 99 91 89 88 84 82 73 72 65 62 60 59 57 54 
   6   0   0   0   0   0   0   0   0   0   0   0   0   1   0   0   1   0   0   0   0   0   7   7   0   0   9   0   0   0   7  14 98 96 92 91 90 88 84 75 69 68 62 61 57 48 
   2   0   0   0   0   0   0   0   0   0   0   0   7   0   0   0   0   0   0   0   0   0   3   0   0   0   0   0   7   0   0  16 101 98 97 92 88 86 82 80 79 74 72 69 67 61 58 55 
   9   0   0   0   0   0   0   0   0   0   0   0   0   0   0   0   0   0   0   0   0   0   0   0   0   0   0   7   5   0   9  15 95 94 91 90 87 84 83 82 81 73 66 65 59 57 51 
   7   0   0   0   0   6   5   0   0   3   0   4   0   0   0   0  10   0   0   0   0   0   0   0   0   0   0   0   0   0   0   9 95 93 92 88 85 79 78 77 41 
  10   0   0   0   0   0   0   6   0   0   0   0   0   0   0   0   0   9   0   0   0   0   0   0   0   8   0   0   0   0   0  11 95 94 92 91 88 84 80 70 66 61 48 
  10   0   0   0   0   0   0   0   8   0   0   0   0   0   0   0   4   0   5   0   0   3   0   0   0   0   0   0   0   0   0  14 97 96 95 93 89 88 83 82 81 78 75 70 66 58 
   4   6   0   0   0   0   0   8   6   3   0   0   9   0   0   0  10   0   0   0   0   0  10   0   0   0   0   0   0   0   0  16 96 95 94 92 90 88 86 85 83 82 81 80 78 77 68 64 
   5   0   0   0   0   0   0   0   0   0   0   0   0   0   0   0   0   0   0   0   0   0   0   0   0   0   0   4   0   0   0  17 98 97 96 94 93 92 87 86 85 84 81 80 78 77 76 70 68 
   2   0   0   0   0   0   0   0   0   9   0   5   0   0   0   5   0   0   0   0   0   0   0   0   0   0   5   0   0   0   0   9 96 93 92 91 87 85 81 80 48 
  10   0   0   0   0   0   0   0   0   0   4   0   0   0   0   9   0   0   0   0   0   0   0   0   0   0   0   8   0   0   0   9 100 91 89 87 86 83 80 58 57 
   6   0   0   0   0   0   0   0   0   0   0   0   0   0   0   0   0   0   0   0   4   0   0   6   0   0   0   6   0   0   0   6 94 92 88 85 57 48 
  10   0   0   0   0   0   0   0   9   0   0   0   0   0   0   0   3   0   0   0   0   0   0   0   0   6   0   0   0   0   0  10 100 90 87 86 84 83 82 81 65 62 
   5   0   0   7   0   0   0   0   0   0  10   0   6   0   2   0   0   0   0   0   0   9   0   0   0   0   0   0   0   0   0   8 84 83 82 81 77 69 68 64 
   4   6   0   0  10   0   0   0   0   7   4   0   5   0   0   0   0   2   0   0   0   0   0   0   0   0   0   0   0   0   0  10 101 94 93 87 86 83 81 79 77 76 
   8   0   0   6   0   0   0   0   3   0   0   0   0   0   0   0   0   7   7   0   0   0   0   0   0   0   8   0   0   0   0   9 90 88 87 85 84 83 81 80 70 
   7   0   0   0   0   0   0   0   0   0   0   0   0   0   0   0   5   0   0  10   0   0   0   0   5   0   0   0   0   0   0   6 89 86 85 71 67 57 
   1   8   0   0   0   0   0   0   0   0   7   6   0   0   0   0   0   0   0   0   0   0   0   0   5  10   0   0   0   0   0   8 99 95 90 88 86 77 76 69 
   3   0   0   0   0   0   0   0   0  10   9   0   0   0   0   0   9   0   0   0   0   0   0   6   0   0   0   0   0   0   0   6 89 86 84 82 78 59 
   8   0   0   0   0   0   0   8   0   0   0   0   0   0   0   0   0   0   0   0   0   0   0   0   0   0   0   0   0   0   7   6 83 82 79 78 77 64 
   9   0   0   0   0   0   0   5   0   0   0   7   5   0   5   0   0   0   0   0   0   0   0   0   6   4   0   0   0   0   0   5 98 86 82 79 59 
  10   4   0   0   0   0   0   0   0   8   0   0   0   0   0   0   0   0   0   0   0   0   0   0   0   0   0   0   0   0   0   7 101 91 87 82 81 78 76 
   1   0   0   0   0   0   0   0   0   0   0   0   0   0   0   0   0   0   0   0   6   0   0   0   0   0   0   4   0   0   8   6 89 88 80 79 77 67 
   8   0   0   0   0   0   0   0   0   0   0   0   0   0   0   9   0   0   0   0   0   0   0   6   0   0   0   0   7   9   0   5 94 78 77 71 64 
   3   0   9   6   0   0   0   0   0   0   6   4   0   8   0   0   0   2   5   0   0   0   0   0   0   0   0   0   0   0   0   6 89 86 84 81 80 78 
   7   0   0   0   0   0   8   0   0   0   0   0   0   0   0   0   0   0   0   0   0   0   0   0   0   0   0   5   0   0   0   5 93 90 78 77 67 
   7   0   0   0   0   0   0   0   0  10   8   0   0   0   5   0   0   0   5   0   0   0   0   8   0   6   0   0   0   0   0   5 93 89 81 77 76 
   3   0   0   0   0   0   0   7   0   0   0   0   0   6   7   0   0   0   6   0   0   0   0   0   0   0   4   3   7   0   0   3 86 83 68 
   3   0   0   0   0   0   0   0   0   0   0   0   0   0   0   0   0   0   0   0   0   3   0   0   0   0   3   5   0   0   0   3 79 78 77 
   4   0   0   0   4   0   0   0   0   0   0   0   0   0   0   0   0   9   0   0   0   0   4   0   0   8   0   0   0   0   0   3 84 77 76 
   9   0   0   0   0   6   0   0   0   6   0   0   0   0   0   0   0   0   3   8   0   6   0   6   0   0   0   0   3   0   0   2 77 67 
   9   0   0   0   0  10   0   0   5   0   0   0   0   7  10   0   0   0   9   7   0   0   0   0   0   4   4   0   0   0   0   2 87 67 
   2   0   9   0   0   0   0   0   0   0   0   0   0   0   0   0   0   0   0   0   0   0   9   0   0   0   0   0  10   0   0   2 85 81 
   9   0   0   0   0   0   0   7   0   3   0   0   6   0   0   0   0   0   7   0   0   0   0   0   0   0   0   0   8   0   0   2 80 76 
   1   0   7   0   0   0   0   0   0   0  10   7   0   0   0   0   0   0   0   0   5   0   0   0   0   0   0   0   0   0   0   2 80 77 
   6   0   3   9   0   0   0   0   0   0   0   8   4   0   0   4   0   0   0   0   0   0   0   0   0   0   0   0   0   6   0   1 67 
   4   0   0   5   0   0   0   0   0   6  10   0   6   0   0   6   0   0   0   0   0   0   0   0   0   0   0   0   0   0   0   1 67 
   2   0   0   0   0   0   0   0   0   0   0   9   0   0   0   0   0   0   0   0   9   0   0   0   0   0  10   5   0   0   0   1 67 
   1   0   0   0   0   0   0   0   0   0   0   0   0   0   0   0   0  10   0   0   0   0   0   0   0   0   0   0   0   0   0   1 76 
   4   0   0   0   0   0   0   6   0   0   0   0   0   5   0   0   0   0   0   6   0   0   0   0   0   4   0   0   0   0   0   1 79 
   3   9   0   0   0   0   0   0   9   0   0   0   0   0   0   0   0   0   8   0   0   0   0   7   0   0   0   0   0   0   0   1 78 
   7   0   0   0   0   0   0   0   0   0   0   0   0   0   0   0   0   0   0   0   0   0   0   0   0   0   0   0   9   0   0   1 79 
   9   0   0   0   7   0   0   0   0   0   0   0   0  10   0   0   5   0   0   7   0   0   0   0   0   4   0   0   0   0   0   1 76 
   5   0   0   0   0   0   0   0   0   0   0   0   0   0   0   0   0   0   0   2   0   0   0   6   0   0   0   0   0   0   0   1 85 
   1   0   4   0   0   0   0   0   0   0   0   0   0   0   0   0   0   0   0   0   0   0   0   0   0   0   0   0   5   3   0   1 76 
   6   0   0   0   0   0   0   0   0   0   0   0   0   7   0   0   0   0   0   0   8   0   0   0   0   0   0   0   0   0   5   1 78 
   3   0   0   0   0   0   6   5   6   5   0   0   0   0   0   0   0   0   0   0   0   0   0   0   0   0   7   0   0   0   0   1 80 
   5   0   0   0   0   0  10   0   0   0   0   0   7   0   6   0   0   0   0   0   0   0   9   0   0   6   0   0   0  10   0   1 102
   2   7   6   0   0   0   0   4   0   0   0   0   0   0   0   6   6   0   0   0   3   8   0   0   0   0   0   0   5   0   0   1 102
   3   0   4   0   7   0   0   0   0   0   0   0   0   0   0   0  10   7   0   0   0   0   0   0   0   0   0   0   0   0   0   1 102
   1   0   0   4   0   0   0   9   0   0   0   0   0   0   0   0   0   0   0   0   0   8   0   0   0   0   6   0   0   0   0   1 102
   2   0   0   0   0   0   0   0   8   0   0   9   0   0   0   0   0   0   0   0   0   4   0   0   0   0   0   0   0   0   0   1 102
   6   0   0   0   0   0   7   0   0   0   0   0   0   0   0   0   0   0   0   0   0   9   0   0   0   0   0   0   0   0   0   1 102
   8   0   7   7   0   0   0   0   0   0   0   0   0   0   0   0   0   0   0   0   5   0   0   0   0   0   0   5   0   4   0   1 102
   5   0   0   8   0   0   0   0   0   0   2   0   0   0   0   0   0   0   0   0   0   0   5   0   6   0   0   3   0   0   0   1 102
  10   0   0   0   4   0   0   0   0   0   0   0   0   0   0   0   0   0   0   0   0   0   0   8   0   0   0   0   0   0   0   1 102
   4   6   0   0   0   0   0   0   0   0   0   0   0   0   0   0   0   0   0   0   0   0   0   0   0   0   0   0   0   0   0   1 102
   4   0   4   0   0   0   0   0   0   0   0   0   0   0   0   0   0   0   0   0   0   0   0   0   0   7   0   0   0   3   0   1 102
  10   0   0   0   0   0   0   0   5   0   0   0   0   0   0   0   0   5  10   0   0   0   0   0   0   0   0  10   0   0   0   1 102
   6   0   0   0   0   0   0   0   0   0   0   0   0   0   0   0   0   0   0   0   0   0   0   0   0   0   0   0   0   0   0   1 102
   3   0   0   0   0   0   0   0   0   0   0   0   0   8   0   7   0   0   0   0   0   0   0   0  10   0   0   0   0   6   6   1 102
   9   8   0   0   7   0   0   0   0   0   0   0   0   0   0   0   0   0   0   8   0   0   0   0   0   0   0   0   0   0   0   1 102
   3   0   6   0   0   0   0   0   0   0   0   0   0   0   0   0   0   7   0   0   0   0   5   0   0   0   0   0   0   0   0   1 102
   4   0   0   0   0   0   0   7   0   8   0   0   0   0   0   0   0   0   0   0  10  10   0   0   0   0   0   0   0   0   0   1 102
   7   0   0   0   8   0   0   0   0   7   0   0   0   0   0   0   0   0   0   0   0   0   0   0   0   0   0   0   0   0   0   1 102
   3   0   0   0   0   0   0   0   0   4   0  10   0   0   0   4   0   0   0   0   0   0   0   0   0   0   0   0   0   0   0   1 102
   5   0   0   5   0   0   0   0   0   0   0   0   0   0   0   0   0   0   0   0   0   0   0   0   0   0   0   0   0   0  10   1 102
   6   0   4   0   7   0   0   0   0   0   0   0   0   0   7   0   0   0   0   0   7   0   0   0   5  10   0   9   0   0   0   1 102
   7   0   0   0   0   0   0   0   0   0   0   0   0   0   0   0   0   0   7   0   0   0   0   0   0   0   0   0   0   0   0   1 102
   8   0   0   0   0   0   0   0   0   0   4   6   0   0   0   0   0   0   4   0   8   4   0   0   7   0   0   0   6   0   0   1 102
   7   0   0   0   0   0   0   0   0   0   0   0   0   0   0   0   0   0   0   0   0   0   0   0   0   4   0   0   4   0   0   1 102
   6   0   0   8   0   0   0   0   0   0   0   0   5   0   0   0   0   0   0   0   0   0   5   0   0   0   0  10   0   0   0   1 102
   1   0   0   0   0   0   0   0   0   0   3   0   0   0   0   0   0   0   0   0   0   0   0   0   0   0   0   0   0   0   0   1 102
   0   0   0   0   0   0   0   0   0   0   0   0   0   0   0   0   0   0   0   0   0   0   0   0   0   0   0   0   0   0   0   0 
